Solver command line: ['C:\\Program Files\\IBM\\ILOG\\CPLEX_Studio2211\\cplex\\bin\\x64_win64\\cplex.exe']


Welcome to IBM(R) ILOG(R) CPLEX(R) Interactive Optimizer 22.1.1.0
  with Simplex, Mixed Integer & Barrier Optimizers
5725-A06 5725-A29 5724-Y48 5724-Y49 5724-Y54 5724-Y55 5655-Y21
Copyright IBM Corp. 1988, 2022.  All Rights Reserved.

Type 'help' for a list of available commands.
Type 'help' followed by a command name for more
information on commands.

CPLEX> Logfile 'cplex.log' closed.
Logfile 'C:\Users\wangy\Documents\GitHub\re_optimization\result_site_specific\tmp9915tsw5.cplex.log' open.
CPLEX> Problem 'C:\Users\wangy\Documents\GitHub\re_optimization\result_site_specific\tmp82jajwdc.pyomo.lp' read.
Read time = 0.30 sec. (7.28 ticks)
CPLEX> Problem name         : C:\Users\wangy\Documents\GitHub\re_optimization\result_site_specific\tmp82jajwdc.pyomo.lp
Objective sense      : Minimize
Variables            :   52617  [Nneg: 27764,  Free: 8786,  Binary: 7,
                                 Other: 16060]
Objective nonzeros   :      14
Linear constraints   :   73052  [Less: 39437,  Greater: 3,  Equal: 33612]
  Nonzeros           :  181174
  RHS nonzeros       :    3807

Variables            : Min LB: 0.000000         Max UB: 1.000000       
Objective nonzeros   : Min   : 1.000000         Max   : 1.000000       
Linear constraints   :
  Nonzeros           : Min   : 0.006207660      Max   : 100000.0       
  RHS nonzeros       : Min   : 0.002000000      Max   : 1000.000       
CPLEX> Version identifier: 22.1.1.0 | 2022-11-27 | 9160aff4d
Tried aggregator 3 times.
MIP Presolve eliminated 48921 rows and 29942 columns.
Aggregator did 7657 substitutions.
Reduced MIP has 16474 rows, 15018 columns, and 47931 nonzeros.
Reduced MIP has 5 binaries, 0 generals, 0 SOSs, and 0 indicators.
Presolve time = 0.17 sec. (152.37 ticks)
Found incumbent of value 161818.801769 after 0.20 sec. (176.15 ticks)
Probing time = 0.02 sec. (0.98 ticks)
Tried aggregator 1 time.
Detecting symmetries...
Reduced MIP has 16474 rows, 15018 columns, and 47931 nonzeros.
Reduced MIP has 5 binaries, 0 generals, 0 SOSs, and 0 indicators.
Presolve time = 0.03 sec. (28.45 ticks)
Probing time = 0.01 sec. (0.88 ticks)
MIP emphasis: balance optimality and feasibility.
MIP search method: dynamic search.
Parallel mode: deterministic, using up to 16 threads.
Root relaxation solution time = 0.67 sec. (369.43 ticks)

        Nodes                                         Cuts/
   Node  Left     Objective  IInf  Best Integer    Best Bound    ItCnt     Gap

*     0+    0                       161818.8018    -3029.2915           101.87%
*     0+    0                         1081.5632    -3029.2915           380.08%
*     0     0      integral     0     1080.7366     1080.7366     6477    0.00%
Elapsed time = 0.97 sec. (606.10 ticks, tree = 0.00 MB, solutions = 3)

Root node processing (before b&c):
  Real time             =    0.98 sec. (608.57 ticks)
Parallel b&c, 16 threads:
  Real time             =    0.00 sec. (0.00 ticks)
  Sync time (average)   =    0.00 sec.
  Wait time (average)   =    0.00 sec.
                          ------------
Total (root+branch&cut) =    0.98 sec. (608.57 ticks)

Solution pool: 3 solutions saved.

MIP - Integer optimal solution:  Objective =  1.0807366078e+03
Solution time =    0.98 sec.  Iterations = 6477  Nodes = 0
Deterministic time = 608.72 ticks  (618.62 ticks/sec)

CPLEX> Incumbent solution written to file 'C:\Users\wangy\Documents\GitHub\re_optimization\result_site_specific\tmplgizg5jp.cplex.sol'.
CPLEX> 
